37
100
70	2
69	1
65	1
64	1
63	1
62	1
61	1
60	2
58	2
57	1
53	1
50	1
49	1
47	1
46	1
45	1
40	2
39	2
37	1
36	1
35	1
34	1
32	1
31	1
30	2
29	2
28	2
27	2
26	2
24	1
21	1
20	2
17	2
16	1
15	1
12	1
11	2
